
Gurobi 12.0.1 (win64, C++) logging started Thu Apr 17 22:28:02 2025

Set parameter TokenServer to value "141.76.38.119"
Set parameter Threads to value 8
Set parameter LazyConstraints to value 1
Set parameter PreCrush to value 1
Set parameter Seed to value 0
Set parameter Cuts to value -1
Set parameter TimeLimit to value 28800
Set parameter NumericFocus to value 0
Set parameter SolutionLimit to value 10000
Gurobi Optimizer version 12.0.1 build v12.0.1rc0 (win64 - Windows Server 2022.0 (20348.2))

CPU model: AMD EPYC 7513 32-Core Processor, instruction set [SSE2|AVX|AVX2]
Thread count: 16 physical cores, 16 logical processors, using up to 8 threads

Non-default parameters:
SolutionLimit  10000
TimeLimit  28800
PreCrush  1
Threads  8
LazyConstraints  1

Optimize a model with 232 rows, 441 columns and 1260 nonzeros
Model fingerprint: 0x3b98c0f7
Variable types: 0 continuous, 441 integer (441 binary)
Coefficient statistics:
  Matrix range     [1e+00, 1e+00]
  Objective range  [6e+00, 6e+01]
  Bounds range     [1e+00, 1e+00]
  RHS range        [1e+00, 4e+00]

User MIP start produced solution with objective 381.453 (0.00s)
Loaded user MIP start with objective 381.453

Presolve removed 2 rows and 23 columns
Presolve time: 0.01s
Presolved: 230 rows, 418 columns, 1194 nonzeros
Variable types: 0 continuous, 418 integer (418 binary)

Root relaxation: objective 2.923362e+02, 67 iterations, 0.00 seconds (0.00 work units)

    Nodes    |    Current Node    |     Objective Bounds      |     Work
 Expl Unexpl |  Obj  Depth IntInf | Incumbent    BestBd   Gap | It/Node Time

     0     0  292.33623    0    -  381.45307  292.33623  23.4%     -    0s
     0     0  307.94455    0    -  381.45307  307.94455  19.3%     -    0s
     0     0  319.25762    0    -  381.45307  319.25762  16.3%     -    0s
     0     0  320.93098    0    -  381.45307  320.93098  15.9%     -    0s
     0     0  321.37940    0   32  381.45307  321.37940  15.7%     -    0s
     0     0  323.36129    0   30  381.45307  323.36129  15.2%     -    2s
     0     0  335.46779    0   22  381.45307  335.46779  12.1%     -    2s
     0     0  343.61357    0    -  381.45307  343.61357  9.92%     -    2s
     0     0  346.74415    0   10  381.45307  346.74415  9.10%     -    2s
     0     0  346.74415    0   10  381.45307  346.74415  9.10%     -    2s
     0     2  347.49071    0   27  381.45307  347.49071  8.90%     -    2s
    71    84  360.71359   10   41  381.45307  350.72070  8.06%  35.5    5s
H  185   163                     368.5649265  350.82733  4.81%  33.5    9s
   198   173  359.67059    7   36  368.56493  350.82733  4.81%  33.3   10s
*  598   276              15     368.3422714  354.17599  3.85%  32.7   11s
*  622   276              14     362.2714829  354.17599  2.23%  32.2   11s

Cutting planes:
  MIR: 1
  Lazy constraints: 1977

Explored 997 nodes (26428 simplex iterations) in 11.86 seconds (2.07 work units)
Thread count was 8 (of 16 available processors)

Solution count 4: 362.271 368.342 368.565 381.453 

Optimal solution found (tolerance 1.00e-04)
Best objective 3.622714828967e+02, best bound 3.622714828967e+02, gap 0.0000%

User-callback calls 2348, time in user-callback 9.95 sec
### START EXACT APPROACH ###
ProblemVariant: 3
### START PREPROCESSING ###
## Start infeasible path procedure ## 
Deleted arcs: 2
Infeasible tail paths: 0
Infeasible 2-node combinations: 1
## Start extended infeasible path procedure ##
Deleted arcs: 2
Infeasible tail paths: 0
Infeasible 2-node combinations: 1
## Start start solution procedure ##
Start solution with 4 Vehicles and total costs 381.453 in 0.878367 s.
### END PREPROCESSING ###
Route 0 0-2-5-20-11-6-0 : weight util 0.952941 | volume util 0.553267 | feasible with packing heuristic | feasible with CP model
Route 1 0-7-9-3-15-4-0 : weight util 0.988235 | volume util 0.324600 | feasible with packing heuristic | feasible with CP model
Route 2 0-16-18-12-10-19-1-0 : weight util 0.964706 | volume util 0.727356 | infeasible with packing heuristic | feasible with CP model
Route 3 0-17-13-14-8-0 : weight util 0.964706 | volume util 0.635511 | feasible with packing heuristic | feasible with CP model
